sat
(= |goto_symex::&92;guard#1| true)
(= |goto_symex::&92;guard#2| false)
(= |memory_model::choice_rf_1_35_0_10_T_0| false)
(= |memory_model::choice_rf_1_35_2_18_T_1| true)
(= |memory_model::choice_rf_1_35_3_53_T_2| false)
(= |memory_model::choice_rf_2_17_0_10_T_3| true)
(= |memory_model::choice_rf_2_17_1_36_T_4| false)
(= |memory_model::choice_rf_2_17_3_53_T_5| false)
(= |memory_model::choice_rf_3_52_0_10_T_6| false)
(= |memory_model::choice_rf_3_52_1_36_T_7| false)
(= |memory_model::choice_rf_3_52_2_18_T_8| true)
(= |memory_model::choice_rf_0_42_0_8_T_9| false)
(= |memory_model::choice_rf_0_42_0_38_T_10| true)
(= |memory_model::choice_rf_0_47_0_8_T_11| false)
(= |memory_model::choice_rf_0_47_0_38_T_12| false)
(= |memory_model::choice_rf_0_47_0_43_T_13| true)
(= |memory_model::choice_rf_1_19_0_19_F_14| false)
(= |memory_model::choice_rf_2_0_0_19_F_15| false)
(= |memory_model::choice_rf_2_0_1_20_F_16| true)
(= |memory_model::choice_rf_0_51_0_11_F_17| false)
(= |memory_model::choice_rf_0_51_1_34_F_18| false)
(= |memory_model::choice_rf_0_51_2_16_F_19| false)
(= |memory_model::choice_rf_0_51_3_51_F_20| true)
(= |memory_model::choice_rf_1_33_0_11_F_21| false)
(= |memory_model::choice_rf_1_33_2_16_F_22| true)
(= |memory_model::choice_rf_1_33_3_51_F_23| false)
(= |memory_model::choice_rf_2_15_0_11_F_24| true)
(= |memory_model::choice_rf_2_15_1_34_F_25| false)
(= |memory_model::choice_rf_2_15_3_51_F_26| false)
(= |memory_model::choice_rf_3_50_0_11_F_27| false)
(= |memory_model::choice_rf_3_50_1_34_F_28| true)
(= |memory_model::choice_rf_3_50_2_16_F_29| false)
(= |memory_model::choice_rf_0_79_0_12_F_30| false)
(= |memory_model::choice_rf_0_79_2_1_F_31| true)
(= |memory_model::choice_rf_0_80_0_13_F_32| false)
(= |memory_model::choice_rf_0_80_3_7_F_33| true)
(= |memory_model::choice_rf_0_74_0_14_F_34| false)
(= |memory_model::choice_rf_0_74_3_26_F_35| true)
(= |memory_model::choice_rf_0_53_0_15_F_36| false)
(= |memory_model::choice_rf_0_53_0_52_F_37| true)
(= |memory_model::choice_rf_0_66_0_16_F_38| false)
(= |memory_model::choice_rf_0_93_0_16_F_39| false)
(= |memory_model::choice_rf_0_93_0_89_F_40| true)
(= |memory_model::choice_rf_0_94_0_16_F_41| false)
(= |memory_model::choice_rf_0_94_0_89_F_42| true)
(= |memory_model::choice_rf_0_54_0_20_F_43| false)
(= |memory_model::choice_rf_0_54_1_32_F_44| true)
(= |memory_model::choice_rf_0_54_2_2_F_45| false)
(= |memory_model::choice_rf_0_54_2_14_F_46| false)
(= |memory_model::choice_rf_0_54_3_13_F_47| false)
(= |memory_model::choice_rf_0_54_3_32_F_48| false)
(= |memory_model::choice_rf_0_54_3_49_F_49| false)
(= |memory_model::choice_rf_0_70_0_20_F_50| false)
(= |memory_model::choice_rf_0_70_0_65_F_51| true)
(= |memory_model::choice_rf_0_70_1_32_F_52| false)
(= |memory_model::choice_rf_0_70_2_2_F_53| false)
(= |memory_model::choice_rf_0_70_2_14_F_54| false)
(= |memory_model::choice_rf_0_70_3_13_F_55| false)
(= |memory_model::choice_rf_0_70_3_32_F_56| false)
(= |memory_model::choice_rf_0_70_3_49_F_57| false)
(= |memory_model::choice_rf_1_21_0_20_F_58| false)
(= |memory_model::choice_rf_1_21_0_65_F_59| false)
(= |memory_model::choice_rf_1_21_0_86_F_60| false)
(= |memory_model::choice_rf_1_21_2_2_F_61| false)
(= |memory_model::choice_rf_1_21_2_14_F_62| true)
(= |memory_model::choice_rf_1_21_3_13_F_63| false)
(= |memory_model::choice_rf_1_21_3_32_F_64| false)
(= |memory_model::choice_rf_1_21_3_49_F_65| false)
(= |memory_model::choice_rf_2_3_0_20_F_66| false)
(= |memory_model::choice_rf_2_3_0_65_F_67| false)
(= |memory_model::choice_rf_2_3_0_86_F_68| false)
(= |memory_model::choice_rf_2_3_1_32_F_69| false)
(= |memory_model::choice_rf_2_3_2_2_F_70| false)
(= |memory_model::choice_rf_2_3_3_13_F_71| false)
(= |memory_model::choice_rf_2_3_3_32_F_72| false)
(= |memory_model::choice_rf_2_3_3_49_F_73| true)
(= |memory_model::choice_rf_3_6_0_20_F_74| false)
(= |memory_model::choice_rf_3_6_0_65_F_75| false)
(= |memory_model::choice_rf_3_6_0_86_F_76| false)
(= |memory_model::choice_rf_3_6_1_32_F_77| false)
(= |memory_model::choice_rf_3_6_2_2_F_78| true)
(= |memory_model::choice_rf_3_6_2_14_F_79| false)
(= |memory_model::choice_rf_3_25_0_20_F_80| false)
(= |memory_model::choice_rf_3_25_0_65_F_81| false)
(= |memory_model::choice_rf_3_25_0_86_F_82| false)
(= |memory_model::choice_rf_3_25_1_32_F_83| false)
(= |memory_model::choice_rf_3_25_2_2_F_84| false)
(= |memory_model::choice_rf_3_25_2_14_F_85| false)
(= |memory_model::choice_rf_3_25_3_13_F_86| true)
(= |memory_model::choice_rf_3_38_0_20_F_87| false)
(= |memory_model::choice_rf_3_38_0_65_F_88| false)
(= |memory_model::choice_rf_3_38_0_86_F_89| false)
(= |memory_model::choice_rf_3_38_1_32_F_90| false)
(= |memory_model::choice_rf_3_38_2_2_F_91| false)
(= |memory_model::choice_rf_3_38_2_14_F_92| false)
(= |memory_model::choice_rf_3_38_3_13_F_93| false)
(= |memory_model::choice_rf_3_38_3_32_F_94| true)
(= |memory_model::choice_rf_0_78_0_21_F_95| false)
(= |memory_model::choice_rf_0_78_3_15_F_96| false)
(= |memory_model::choice_rf_0_78_3_34_F_97| false)
(= |memory_model::choice_rf_0_71_0_22_F_98| false)
(= |memory_model::choice_rf_0_71_3_14_F_99| false)
(= |memory_model::choice_rf_0_71_3_33_F_100| false)
(= |memory_model::choice_rf_0_59_0_23_F_101| true)
(= |memory_model::choice_rf_0_73_0_23_F_102| false)
(= |memory_model::choice_rf_0_73_0_62_F_103| true)
(= |memory_model::choice_rf_1_7_0_23_F_104| true)
(= |memory_model::choice_rf_1_7_0_62_F_105| false)
(= |memory_model::choice_rf_1_7_0_82_F_106| false)
(= |memory_model::choice_rf_1_5_0_24_F_107| true)
(= |memory_model::choice_rf_1_26_0_24_F_108| false)
(= |memory_model::choice_rf_1_26_1_10_F_109| true)
(= |memory_model::choice_rf_1_3_0_25_F_110| true)
(= |memory_model::choice_rf_1_3_2_11_F_111| false)
(= |memory_model::choice_rf_2_8_0_25_F_112| true)
(= |memory_model::choice_rf_1_1_0_26_F_113| true)
(= |memory_model::choice_rf_1_1_3_8_F_114| false)
(= |memory_model::choice_rf_1_1_3_27_F_115| false)
(= |memory_model::choice_rf_1_1_3_45_F_116| false)
(= |memory_model::choice_rf_3_4_0_26_F_117| true)
(= |memory_model::choice_rf_3_23_0_26_F_118| false)
(= |memory_model::choice_rf_3_23_3_8_F_119| true)
(= |memory_model::choice_rf_3_43_0_26_F_120| false)
(= |memory_model::choice_rf_3_43_3_8_F_121| false)
(= |memory_model::choice_rf_3_43_3_27_F_122| true)
(= |memory_model::choice_rf_0_58_0_27_F_123| false)
(= |memory_model::choice_rf_0_58_1_13_F_124| true)
(= |memory_model::choice_rf_0_75_0_27_F_125| false)
(= |memory_model::choice_rf_0_75_0_61_F_126| true)
(= |memory_model::choice_rf_0_75_1_13_F_127| false)
(= |memory_model::choice_rf_1_6_0_27_F_128| false)
(= |memory_model::choice_rf_1_6_0_61_F_129| false)
(= |memory_model::choice_rf_1_6_0_81_F_130| false)
(= |memory_model::choice_rf_1_4_0_28_F_131| false)
(= |memory_model::choice_rf_1_23_0_28_F_132| false)
(= |memory_model::choice_rf_1_23_1_12_F_133| true)
(= |memory_model::choice_rf_1_2_0_29_F_134| false)
(= |memory_model::choice_rf_1_2_2_10_F_135| false)
(= |memory_model::choice_rf_2_5_0_29_F_136| false)
(= |memory_model::choice_rf_2_5_1_11_F_137| true)
(= |memory_model::choice_rf_1_0_0_30_F_138| false)
(= |memory_model::choice_rf_1_0_3_9_F_139| false)
(= |memory_model::choice_rf_1_0_3_28_F_140| false)
(= |memory_model::choice_rf_1_0_3_47_F_141| false)
(= |memory_model::choice_rf_3_2_0_30_F_142| false)
(= |memory_model::choice_rf_3_2_1_14_F_143| true)
(= |memory_model::choice_rf_3_21_0_30_F_144| false)
(= |memory_model::choice_rf_3_21_1_14_F_145| false)
(= |memory_model::choice_rf_3_21_3_9_F_146| true)
(= |memory_model::choice_rf_3_40_0_30_F_147| false)
(= |memory_model::choice_rf_3_40_1_14_F_148| false)
(= |memory_model::choice_rf_3_40_3_9_F_149| false)
(= |memory_model::choice_rf_3_40_3_28_F_150| true)
(= |memory_model::choice_rf_0_57_0_33_F_151| false)
(= |memory_model::choice_rf_0_57_1_17_F_152| false)
(= |memory_model::choice_rf_0_57_3_12_F_153| false)
(= |memory_model::choice_rf_0_57_3_31_F_154| true)
(= |memory_model::choice_rf_0_76_0_33_F_155| false)
(= |memory_model::choice_rf_0_76_1_17_F_156| false)
(= |memory_model::choice_rf_0_76_3_12_F_157| false)
(= |memory_model::choice_rf_0_76_3_31_F_158| true)
(= |memory_model::choice_rf_1_9_0_33_F_159| true)
(= |memory_model::choice_rf_1_9_0_85_F_160| false)
(= |memory_model::choice_rf_1_9_3_12_F_161| false)
(= |memory_model::choice_rf_1_9_3_31_F_162| false)
(= |memory_model::choice_rf_1_25_0_33_F_163| false)
(= |memory_model::choice_rf_1_25_0_85_F_164| false)
(= |memory_model::choice_rf_1_25_1_17_F_165| false)
(= |memory_model::choice_rf_1_25_3_12_F_166| false)
(= |memory_model::choice_rf_1_25_3_31_F_167| true)
(= |memory_model::choice_rf_2_7_0_33_F_168| false)
(= |memory_model::choice_rf_2_7_0_85_F_169| false)
(= |memory_model::choice_rf_2_7_1_17_F_170| false)
(= |memory_model::choice_rf_2_7_3_12_F_171| false)
(= |memory_model::choice_rf_2_7_3_31_F_172| true)
(= |memory_model::choice_rf_3_1_0_33_F_173| false)
(= |memory_model::choice_rf_3_1_0_85_F_174| false)
(= |memory_model::choice_rf_3_1_1_17_F_175| true)
(= |memory_model::choice_rf_3_20_0_33_F_176| false)
(= |memory_model::choice_rf_3_20_0_85_F_177| false)
(= |memory_model::choice_rf_3_20_1_17_F_178| false)
(= |memory_model::choice_rf_3_20_3_12_F_179| true)
(= |memory_model::choice_rf_3_42_0_33_F_180| false)
(= |memory_model::choice_rf_3_42_0_85_F_181| false)
(= |memory_model::choice_rf_3_42_1_17_F_182| false)
(= |memory_model::choice_rf_3_42_3_12_F_183| false)
(= |memory_model::choice_rf_3_42_3_31_F_184| true)
(= |memory_model::choice_rf_0_60_0_34_F_185| false)
(= |memory_model::choice_rf_0_60_1_15_F_186| false)
(= |memory_model::choice_rf_0_60_1_31_F_187| true)
(= |memory_model::choice_rf_0_60_2_13_F_188| false)
(= |memory_model::choice_rf_0_60_3_10_F_189| false)
(= |memory_model::choice_rf_0_60_3_29_F_190| false)
(= |memory_model::choice_rf_0_60_3_48_F_191| false)
(= |memory_model::choice_rf_0_72_0_34_F_192| false)
(= |memory_model::choice_rf_0_72_0_64_F_193| true)
(= |memory_model::choice_rf_0_72_1_15_F_194| false)
(= |memory_model::choice_rf_0_72_1_31_F_195| false)
(= |memory_model::choice_rf_0_72_2_13_F_196| false)
(= |memory_model::choice_rf_0_72_3_10_F_197| false)
(= |memory_model::choice_rf_0_72_3_29_F_198| false)
(= |memory_model::choice_rf_0_72_3_48_F_199| false)
(= |memory_model::choice_rf_1_8_0_34_F_200| true)
(= |memory_model::choice_rf_1_8_0_64_F_201| false)
(= |memory_model::choice_rf_1_8_0_83_F_202| false)
(= |memory_model::choice_rf_1_8_2_13_F_203| false)
(= |memory_model::choice_rf_1_8_3_10_F_204| false)
(= |memory_model::choice_rf_1_8_3_29_F_205| false)
(= |memory_model::choice_rf_1_8_3_48_F_206| false)
(= |memory_model::choice_rf_1_27_0_34_F_207| false)
(= |memory_model::choice_rf_1_27_0_64_F_208| false)
(= |memory_model::choice_rf_1_27_0_83_F_209| false)
(= |memory_model::choice_rf_1_27_1_15_F_210| false)
(= |memory_model::choice_rf_1_27_2_13_F_211| true)
(= |memory_model::choice_rf_1_27_3_10_F_212| false)
(= |memory_model::choice_rf_1_27_3_29_F_213| false)
(= |memory_model::choice_rf_1_27_3_48_F_214| false)
(= |memory_model::choice_rf_2_9_0_34_F_215| false)
(= |memory_model::choice_rf_2_9_0_64_F_216| false)
(= |memory_model::choice_rf_2_9_0_83_F_217| false)
(= |memory_model::choice_rf_2_9_1_15_F_218| false)
(= |memory_model::choice_rf_2_9_1_31_F_219| false)
(= |memory_model::choice_rf_2_9_3_10_F_220| false)
(= |memory_model::choice_rf_2_9_3_29_F_221| false)
(= |memory_model::choice_rf_2_9_3_48_F_222| true)
(= |memory_model::choice_rf_3_5_0_34_F_223| false)
(= |memory_model::choice_rf_3_5_0_64_F_224| false)
(= |memory_model::choice_rf_3_5_0_83_F_225| false)
(= |memory_model::choice_rf_3_5_1_15_F_226| true)
(= |memory_model::choice_rf_3_5_1_31_F_227| false)
(= |memory_model::choice_rf_3_5_2_13_F_228| false)
(= |memory_model::choice_rf_3_24_0_34_F_229| false)
(= |memory_model::choice_rf_3_24_0_64_F_230| false)
(= |memory_model::choice_rf_3_24_0_83_F_231| false)
(= |memory_model::choice_rf_3_24_1_15_F_232| false)
(= |memory_model::choice_rf_3_24_1_31_F_233| false)
(= |memory_model::choice_rf_3_24_2_13_F_234| false)
(= |memory_model::choice_rf_3_24_3_10_F_235| true)
(= |memory_model::choice_rf_3_44_0_34_F_236| false)
(= |memory_model::choice_rf_3_44_0_64_F_237| false)
(= |memory_model::choice_rf_3_44_0_83_F_238| false)
(= |memory_model::choice_rf_3_44_1_15_F_239| false)
(= |memory_model::choice_rf_3_44_1_31_F_240| false)
(= |memory_model::choice_rf_3_44_2_13_F_241| false)
(= |memory_model::choice_rf_3_44_3_10_F_242| false)
(= |memory_model::choice_rf_3_44_3_29_F_243| true)
(= |memory_model::choice_rf_0_55_0_35_F_244| false)
(= |memory_model::choice_rf_0_55_1_18_F_245| false)
(= |memory_model::choice_rf_0_55_3_11_F_246| false)
(= |memory_model::choice_rf_0_55_3_30_F_247| true)
(= |memory_model::choice_rf_0_77_0_35_F_248| false)
(= |memory_model::choice_rf_0_77_1_18_F_249| false)
(= |memory_model::choice_rf_0_77_3_11_F_250| false)
(= |memory_model::choice_rf_0_77_3_30_F_251| true)
(= |memory_model::choice_rf_1_22_0_35_F_252| false)
(= |memory_model::choice_rf_1_22_0_84_F_253| false)
(= |memory_model::choice_rf_1_22_1_18_F_254| false)
(= |memory_model::choice_rf_1_22_3_11_F_255| false)
(= |memory_model::choice_rf_1_22_3_30_F_256| true)
(= |memory_model::choice_rf_2_4_0_35_F_257| false)
(= |memory_model::choice_rf_2_4_0_84_F_258| false)
(= |memory_model::choice_rf_2_4_1_18_F_259| false)
(= |memory_model::choice_rf_2_4_3_11_F_260| false)
(= |memory_model::choice_rf_2_4_3_30_F_261| true)
(= |memory_model::choice_rf_3_0_0_35_F_262| false)
(= |memory_model::choice_rf_3_0_0_84_F_263| false)
(= |memory_model::choice_rf_3_0_1_18_F_264| true)
(= |memory_model::choice_rf_3_19_0_35_F_265| false)
(= |memory_model::choice_rf_3_19_0_84_F_266| false)
(= |memory_model::choice_rf_3_19_1_18_F_267| false)
(= |memory_model::choice_rf_3_19_3_11_F_268| true)
(= |memory_model::choice_rf_3_39_0_35_F_269| false)
(= |memory_model::choice_rf_3_39_0_84_F_270| false)
(= |memory_model::choice_rf_3_39_1_18_F_271| false)
(= |memory_model::choice_rf_3_39_3_11_F_272| false)
(= |memory_model::choice_rf_3_39_3_30_F_273| true)
(= |memory_model::choice_rf_0_56_0_36_F_274| false)
(= |memory_model::choice_rf_0_56_1_16_F_275| false)
(= |memory_model::choice_rf_0_56_1_30_F_276| true)
(= |memory_model::choice_rf_0_56_2_12_F_277| false)
(= |memory_model::choice_rf_0_56_3_17_F_278| false)
(= |memory_model::choice_rf_0_56_3_36_F_279| false)
(= |memory_model::choice_rf_0_56_3_46_F_280| false)
(= |memory_model::choice_rf_0_68_0_36_F_281| false)
(= |memory_model::choice_rf_0_68_0_63_F_282| true)
(= |memory_model::choice_rf_0_68_1_16_F_283| false)
(= |memory_model::choice_rf_0_68_1_30_F_284| false)
(= |memory_model::choice_rf_0_68_2_12_F_285| false)
(= |memory_model::choice_rf_0_68_3_17_F_286| false)
(= |memory_model::choice_rf_0_68_3_36_F_287| false)
(= |memory_model::choice_rf_0_68_3_46_F_288| false)
(= |memory_model::choice_rf_1_24_0_36_F_289| false)
(= |memory_model::choice_rf_1_24_0_63_F_290| false)
(= |memory_model::choice_rf_1_24_0_91_F_291| false)
(= |memory_model::choice_rf_1_24_1_16_F_292| false)
(= |memory_model::choice_rf_1_24_2_12_F_293| true)
(= |memory_model::choice_rf_1_24_3_17_F_294| false)
(= |memory_model::choice_rf_1_24_3_36_F_295| false)
(= |memory_model::choice_rf_1_24_3_46_F_296| false)
(= |memory_model::choice_rf_2_6_0_36_F_297| false)
(= |memory_model::choice_rf_2_6_0_63_F_298| false)
(= |memory_model::choice_rf_2_6_0_91_F_299| false)
(= |memory_model::choice_rf_2_6_1_16_F_300| false)
(= |memory_model::choice_rf_2_6_1_30_F_301| false)
(= |memory_model::choice_rf_2_6_3_17_F_302| false)
(= |memory_model::choice_rf_2_6_3_36_F_303| false)
(= |memory_model::choice_rf_2_6_3_46_F_304| true)
(= |memory_model::choice_rf_3_3_0_36_F_305| false)
(= |memory_model::choice_rf_3_3_0_63_F_306| false)
(= |memory_model::choice_rf_3_3_0_91_F_307| false)
(= |memory_model::choice_rf_3_3_1_16_F_308| true)
(= |memory_model::choice_rf_3_3_1_30_F_309| false)
(= |memory_model::choice_rf_3_3_2_12_F_310| false)
(= |memory_model::choice_rf_3_22_0_36_F_311| false)
(= |memory_model::choice_rf_3_22_0_63_F_312| false)
(= |memory_model::choice_rf_3_22_0_91_F_313| false)
(= |memory_model::choice_rf_3_22_1_16_F_314| false)
(= |memory_model::choice_rf_3_22_1_30_F_315| false)
(= |memory_model::choice_rf_3_22_2_12_F_316| false)
(= |memory_model::choice_rf_3_22_3_17_F_317| true)
(= |memory_model::choice_rf_3_41_0_36_F_318| false)
(= |memory_model::choice_rf_3_41_0_63_F_319| false)
(= |memory_model::choice_rf_3_41_0_91_F_320| false)
(= |memory_model::choice_rf_3_41_1_16_F_321| false)
(= |memory_model::choice_rf_3_41_1_30_F_322| false)
(= |memory_model::choice_rf_3_41_2_12_F_323| false)
(= |memory_model::choice_rf_3_41_3_17_F_324| false)
(= |memory_model::choice_rf_3_41_3_36_F_325| true)
(= |memory_model::choice_rf_0_67_0_17_F_326| false)
(= |memory_model::choice_rf_0_67_3_18_F_327| false)
(= |memory_model::choice_rf_0_67_3_37_F_328| false)
(= |memory_model::choice_rf_0_69_0_18_F_329| false)
(= |memory_model::choice_rf_0_69_3_16_F_330| false)
(= |memory_model::choice_rf_0_69_3_35_F_331| false)
(= |memory_model::choice_ws-ext_0_10_1_36_T_332| true)
(= |memory_model::choice_ws-ext_0_10_2_18_T_333| true)
(= |memory_model::choice_ws-ext_0_10_3_53_T_334| true)
(= |memory_model::choice_ws-ext_1_36_2_18_T_335| false)
(= |memory_model::choice_ws-ext_1_36_3_53_T_336| true)
(= |memory_model::choice_ws-ext_2_18_3_53_T_337| true)
(= |memory_model::choice_ws-ext_0_19_1_20_F_338| true)
(= |memory_model::choice_ws-ext_0_11_1_34_F_339| true)
(= |memory_model::choice_ws-ext_0_11_2_16_F_340| true)
(= |memory_model::choice_ws-ext_0_11_3_51_F_341| true)
(= |memory_model::choice_ws-ext_1_34_2_16_F_342| false)
(= |memory_model::choice_ws-ext_1_34_3_51_F_343| true)
(= |memory_model::choice_ws-ext_2_16_3_51_F_344| true)
(= |memory_model::choice_ws-ext_0_12_2_1_F_345| true)
(= |memory_model::choice_ws-ext_0_13_3_7_F_346| true)
(= |memory_model::choice_ws-ext_0_14_3_26_F_347| true)
(= |memory_model::choice_ws-ext_0_20_1_32_F_348| true)
(= |memory_model::choice_ws-ext_0_20_2_2_F_349| true)
(= |memory_model::choice_ws-ext_0_20_2_14_F_350| true)
(= |memory_model::choice_ws-ext_0_20_3_13_F_351| true)
(= |memory_model::choice_ws-ext_0_20_3_32_F_352| true)
(= |memory_model::choice_ws-ext_0_20_3_49_F_353| true)
(= |memory_model::choice_ws-ext_0_65_1_32_F_354| false)
(= |memory_model::choice_ws-ext_0_65_2_2_F_355| false)
(= |memory_model::choice_ws-ext_0_65_2_14_F_356| false)
(= |memory_model::choice_ws-ext_0_65_3_13_F_357| false)
(= |memory_model::choice_ws-ext_0_65_3_32_F_358| false)
(= |memory_model::choice_ws-ext_0_65_3_49_F_359| false)
(= |memory_model::choice_ws-ext_0_86_1_32_F_360| false)
(= |memory_model::choice_ws-ext_0_86_2_2_F_361| false)
(= |memory_model::choice_ws-ext_0_86_2_14_F_362| false)
(= |memory_model::choice_ws-ext_0_86_3_13_F_363| false)
(= |memory_model::choice_ws-ext_0_86_3_32_F_364| false)
(= |memory_model::choice_ws-ext_0_86_3_49_F_365| false)
(= |memory_model::choice_ws-ext_1_32_2_2_F_366| false)
(= |memory_model::choice_ws-ext_1_32_2_14_F_367| false)
(= |memory_model::choice_ws-ext_1_32_3_13_F_368| false)
(= |memory_model::choice_ws-ext_1_32_3_32_F_369| false)
(= |memory_model::choice_ws-ext_1_32_3_49_F_370| false)
(= |memory_model::choice_ws-ext_2_2_3_13_F_371| true)
(= |memory_model::choice_ws-ext_2_2_3_32_F_372| true)
(= |memory_model::choice_ws-ext_2_2_3_49_F_373| true)
(= |memory_model::choice_ws-ext_2_14_3_13_F_374| false)
(= |memory_model::choice_ws-ext_2_14_3_32_F_375| false)
(= |memory_model::choice_ws-ext_2_14_3_49_F_376| false)
(= |memory_model::choice_ws-ext_0_21_3_15_F_377| true)
(= |memory_model::choice_ws-ext_0_21_3_34_F_378| true)
(= |memory_model::choice_ws-ext_0_88_3_15_F_379| false)
(= |memory_model::choice_ws-ext_0_88_3_34_F_380| false)
(= |memory_model::choice_ws-ext_0_22_3_14_F_381| true)
(= |memory_model::choice_ws-ext_0_22_3_33_F_382| true)
(= |memory_model::choice_ws-ext_0_87_3_14_F_383| false)
(= |memory_model::choice_ws-ext_0_87_3_33_F_384| false)
(= |memory_model::choice_ws-ext_0_24_1_10_F_385| true)
(= |memory_model::choice_ws-ext_0_24_1_29_F_386| true)
(= |memory_model::choice_ws-ext_0_25_2_11_F_387| true)
(= |memory_model::choice_ws-ext_0_26_3_8_F_388| true)
(= |memory_model::choice_ws-ext_0_26_3_27_F_389| true)
(= |memory_model::choice_ws-ext_0_26_3_45_F_390| true)
(= |memory_model::choice_ws-ext_0_27_1_13_F_391| true)
(= |memory_model::choice_ws-ext_0_61_1_13_F_392| false)
(= |memory_model::choice_ws-ext_0_81_1_13_F_393| false)
(= |memory_model::choice_ws-ext_0_28_1_12_F_394| true)
(= |memory_model::choice_ws-ext_0_28_1_28_F_395| true)
(= |memory_model::choice_ws-ext_0_29_1_11_F_396| true)
(= |memory_model::choice_ws-ext_0_29_2_10_F_397| true)
(= |memory_model::choice_ws-ext_1_11_2_10_F_398| true)
(= |memory_model::choice_ws-ext_0_30_1_14_F_399| true)
(= |memory_model::choice_ws-ext_0_30_3_9_F_400| true)
(= |memory_model::choice_ws-ext_0_30_3_28_F_401| true)
(= |memory_model::choice_ws-ext_0_30_3_47_F_402| true)
(= |memory_model::choice_ws-ext_1_14_3_9_F_403| true)
(= |memory_model::choice_ws-ext_1_14_3_28_F_404| true)
(= |memory_model::choice_ws-ext_1_14_3_47_F_405| true)
(= |memory_model::choice_ws-ext_0_33_1_17_F_406| true)
(= |memory_model::choice_ws-ext_0_33_3_12_F_407| true)
(= |memory_model::choice_ws-ext_0_33_3_31_F_408| true)
(= |memory_model::choice_ws-ext_0_85_1_17_F_409| false)
(= |memory_model::choice_ws-ext_0_85_3_12_F_410| false)
(= |memory_model::choice_ws-ext_0_85_3_31_F_411| false)
(= |memory_model::choice_ws-ext_1_17_3_12_F_412| true)
(= |memory_model::choice_ws-ext_1_17_3_31_F_413| true)
(= |memory_model::choice_ws-ext_0_34_1_15_F_414| true)
(= |memory_model::choice_ws-ext_0_34_1_31_F_415| true)
(= |memory_model::choice_ws-ext_0_34_2_13_F_416| true)
(= |memory_model::choice_ws-ext_0_34_3_10_F_417| true)
(= |memory_model::choice_ws-ext_0_34_3_29_F_418| true)
(= |memory_model::choice_ws-ext_0_34_3_48_F_419| true)
(= |memory_model::choice_ws-ext_0_64_1_15_F_420| false)
(= |memory_model::choice_ws-ext_0_64_1_31_F_421| false)
(= |memory_model::choice_ws-ext_0_64_2_13_F_422| false)
(= |memory_model::choice_ws-ext_0_64_3_10_F_423| false)
(= |memory_model::choice_ws-ext_0_64_3_29_F_424| false)
(= |memory_model::choice_ws-ext_0_64_3_48_F_425| false)
(= |memory_model::choice_ws-ext_0_83_1_15_F_426| false)
(= |memory_model::choice_ws-ext_0_83_1_31_F_427| false)
(= |memory_model::choice_ws-ext_0_83_2_13_F_428| false)
(= |memory_model::choice_ws-ext_0_83_3_10_F_429| false)
(= |memory_model::choice_ws-ext_0_83_3_29_F_430| false)
(= |memory_model::choice_ws-ext_0_83_3_48_F_431| false)
(= |memory_model::choice_ws-ext_1_15_2_13_F_432| true)
(= |memory_model::choice_ws-ext_1_15_3_10_F_433| true)
(= |memory_model::choice_ws-ext_1_15_3_29_F_434| true)
(= |memory_model::choice_ws-ext_1_15_3_48_F_435| true)
(= |memory_model::choice_ws-ext_1_31_2_13_F_436| false)
(= |memory_model::choice_ws-ext_1_31_3_10_F_437| false)
(= |memory_model::choice_ws-ext_1_31_3_29_F_438| false)
(= |memory_model::choice_ws-ext_1_31_3_48_F_439| false)
(= |memory_model::choice_ws-ext_2_13_3_10_F_440| false)
(= |memory_model::choice_ws-ext_2_13_3_29_F_441| false)
(= |memory_model::choice_ws-ext_2_13_3_48_F_442| false)
(= |memory_model::choice_ws-ext_0_35_1_18_F_443| true)
(= |memory_model::choice_ws-ext_0_35_3_11_F_444| true)
(= |memory_model::choice_ws-ext_0_35_3_30_F_445| true)
(= |memory_model::choice_ws-ext_0_84_1_18_F_446| false)
(= |memory_model::choice_ws-ext_0_84_3_11_F_447| false)
(= |memory_model::choice_ws-ext_0_84_3_30_F_448| false)
(= |memory_model::choice_ws-ext_1_18_3_11_F_449| true)
(= |memory_model::choice_ws-ext_1_18_3_30_F_450| true)
(= |memory_model::choice_ws-ext_0_36_1_16_F_451| true)
(= |memory_model::choice_ws-ext_0_36_1_30_F_452| true)
(= |memory_model::choice_ws-ext_0_36_2_12_F_453| true)
(= |memory_model::choice_ws-ext_0_36_3_17_F_454| true)
(= |memory_model::choice_ws-ext_0_36_3_36_F_455| true)
(= |memory_model::choice_ws-ext_0_36_3_46_F_456| true)
(= |memory_model::choice_ws-ext_0_63_1_16_F_457| false)
(= |memory_model::choice_ws-ext_0_63_1_30_F_458| false)
(= |memory_model::choice_ws-ext_0_63_2_12_F_459| false)
(= |memory_model::choice_ws-ext_0_63_3_17_F_460| false)
(= |memory_model::choice_ws-ext_0_63_3_36_F_461| false)
(= |memory_model::choice_ws-ext_0_63_3_46_F_462| false)
(= |memory_model::choice_ws-ext_0_91_1_16_F_463| false)
(= |memory_model::choice_ws-ext_0_91_1_30_F_464| false)
(= |memory_model::choice_ws-ext_0_91_2_12_F_465| false)
(= |memory_model::choice_ws-ext_0_91_3_17_F_466| false)
(= |memory_model::choice_ws-ext_0_91_3_36_F_467| false)
(= |memory_model::choice_ws-ext_0_91_3_46_F_468| false)
(= |memory_model::choice_ws-ext_1_16_2_12_F_469| true)
(= |memory_model::choice_ws-ext_1_16_3_17_F_470| true)
(= |memory_model::choice_ws-ext_1_16_3_36_F_471| true)
(= |memory_model::choice_ws-ext_1_16_3_46_F_472| true)
(= |memory_model::choice_ws-ext_1_30_2_12_F_473| false)
(= |memory_model::choice_ws-ext_1_30_3_17_F_474| false)
(= |memory_model::choice_ws-ext_1_30_3_36_F_475| false)
(= |memory_model::choice_ws-ext_1_30_3_46_F_476| false)
(= |memory_model::choice_ws-ext_2_12_3_17_F_477| false)
(= |memory_model::choice_ws-ext_2_12_3_36_F_478| false)
(= |memory_model::choice_ws-ext_2_12_3_46_F_479| false)
(= |memory_model::choice_ws-ext_0_17_3_18_F_480| true)
(= |memory_model::choice_ws-ext_0_17_3_37_F_481| true)
(= |memory_model::choice_ws-ext_0_92_3_18_F_482| false)
(= |memory_model::choice_ws-ext_0_92_3_37_F_483| false)
(= |memory_model::choice_ws-ext_0_18_3_16_F_484| true)
(= |memory_model::choice_ws-ext_0_18_3_35_F_485| true)
(= |memory_model::choice_ws-ext_0_90_3_16_F_486| false)
(= |memory_model::choice_ws-ext_0_90_3_35_F_487| false)
(= |main$tmp_guard0#3| #b00000001)
(= |__CPROVER_next_thread_id#3| #b00000000000000000000000000000001)
(= |__CPROVER_next_thread_id#6| #b00000000000000000000000000000010)
(= |__unbuffered_cnt#2| #b00000000000000000000000000000011)
(= |y$w_buff0_used#2| #b00000000)
(= |y$r_buff0_thd0#2| #b00000000)
(= |y$w_buff0#2| #b00000000000000000000000000000010)
(= |y$w_buff1_used#2| #b00000000)
(= |y$r_buff1_thd0#2| #b00000000)
(= |y$w_buff1#2| #b00000000000000000000000000000000)
(= |y#2| #b00000000000000000000000000000010)
(= |y#4| #b00000000000000000000000000000010)
(= |y$w_buff0_used#6| #b00000000)
(= |y$w_buff1_used#6| #b00000000)
(= |y$r_buff0_thd0#8| #b00000000)
(= |y$r_buff1_thd0#7| #b00000000)
(= |nondet_symex::nondet0| #b00000000000000000000000000000000)
(= |weak$$choice0#2| #b00000000)
(= |weak$$choice0#3| #b10000000)
(= |nondet_symex::nondet1| #b10000000000000000000000000000000)
(= |weak$$choice2#2| #b00000001)
(= |weak$$choice2#3| #b10000000)
(= |y$flush_delayed#2| #b00000001)
(= |y$flush_delayed#3| #b10000000)
(= |y#6| #b00000000000000000000000000000010)
(= |y$mem_tmp#2| #b00000000000000000000000000000010)
(= |y$mem_tmp#3| #b10000000000000000000000000000000)
(= |y$w_buff0_used#11| #b00000000)
(= |y$r_buff0_thd0#11| #b00000000)
(= |y$w_buff1_used#9| #b00000000)
(= |y$r_buff1_thd0#9| #b00000000)
(= |y$w_buff0#4| #b00000000000000000000000000000010)
(= |y$w_buff1#4| #b00000000000000000000000000000000)
(= |y#9| #b00000000000000000000000000000010)
(= |y$w_buff0#10| #b00000000000000000000000000000010)
(= |y$w_buff1#10| #b00000000000000000000000000000000)
(= |y$w_buff0_used#23| #b00000000)
(= |y$w_buff1_used#17| #b00000000)
(= |y$r_buff0_thd0#33| #b00000000)
(= |y$r_buff1_thd0#19| #b00000000)
(= |__unbuffered_p1_EAX#2| #b00000000000000000000000000000001)
(= |__unbuffered_p2_EAX#2| #b00000000000000000000000000000001)
(= |__unbuffered_p2_EBX#2| #b00000000000000000000000000000001)
(= |main$tmp_guard1#2| #b00000000)
(= |main$tmp_guard1#3| #b10000000)
(= |y#13| #b00000000000000000000000000000010)
(= |y$flush_delayed#6| #b00000000)
(= |main$tmp_guard1#6| #b00000000)
(= |pthread_create::1::this_thread_id!1@0#0| #b10000000000000000000000000000000)
(= |y$w_buff0#12| #b00000000000000000000000000000000)
(= |y$w_buff0_used#31| #b00000000)
(= |y$r_buff0_thd0#38| #b00000000)
(= |y$r_buff1_thd0#21| #b00000000)
(= |y$r_buff1_thd0#22| #b10000000)
(= |y$r_buff0_thd1#2| #b00000000)
(= |y$r_buff1_thd1#2| #b00000000)
(= |y$r_buff1_thd1#3| #b10000000)
(= |y$r_buff0_thd2#2| #b00000000)
(= |y$r_buff1_thd2#2| #b00000000)
(= |y$r_buff1_thd2#3| #b10000000)
(= |y$r_buff0_thd3#2| #b00000000)
(= |y$r_buff1_thd3#2| #b00000000)
(= |y$r_buff1_thd3#3| #b10000000)
(= |y$r_buff0_thd1#4| #b00000001)
(= |x#2| #b00000000000000000000000000000001)
(= |x#3| #b10000000000000000000000000000000)
(= |y$w_buff0_used#34| #b00000001)
(= |y$r_buff0_thd1#6| #b00000001)
(= |y$w_buff0#15| #b00000000000000000000000000000010)
(= |y$w_buff1_used#22| #b00000000)
(= |y$r_buff1_thd1#5| #b00000000)
(= |y$w_buff1#13| #b00000000000000000000000000000000)
(= |y#15| #b00000000000000000000000000000001)
(= |y#17| #b00000000000000000000000000000010)
(= |y$w_buff0_used#38| #b00000000)
(= |y$w_buff1_used#26| #b00000000)
(= |y$r_buff0_thd1#12| #b00000001)
(= |y$r_buff1_thd1#10| #b00000000)
(= |__unbuffered_cnt#4| #b00000000000000000000000000000001)
(= |__unbuffered_cnt#6| #b00000000000000000000000000000010)
(= |pthread_create::1::this_thread_id!2@0#0| #b00000000000000000000000000000000)
(= |x#5| #b00000000000000000000000000000001)
(= |y$w_buff0_used#43| #b00000001)
(= |y$r_buff0_thd2#4| #b00000000)
(= |y$w_buff0#17| #b00000000000000000000000000000010)
(= |y$w_buff1_used#29| #b00000000)
(= |y$r_buff1_thd2#5| #b00000000)
(= |y$w_buff1#15| #b00000000000000000000000000000000)
(= |y#20| #b00000000000000000000000000000001)
(= |__unbuffered_cnt#8| #b00000000000000000000000000000000)
(= |pthread_create::1::this_thread_id!3@0#0| #b00000000000000000000000000000000)
(= |nondet_symex::nondet4| #b10000000000000000000000000000000)
(= |nondet_symex::nondet5| #b10000000000000000000000000000000)
(= |y#23| #b00000000000000000000000000000001)
(= |y$w_buff0_used#46| #b00000001)
(= |y$r_buff0_thd3#4| #b00000000)
(= |y$w_buff1_used#32| #b00000000)
(= |y$r_buff1_thd3#5| #b00000000)
(= |y$w_buff0#19| #b00000000000000000000000000000010)
(= |y$w_buff1#17| #b00000000000000000000000000000000)
(= |nondet_symex::nondet6| #b10000000000000000000000000000000)
(= |nondet_symex::nondet7| #b10000000000000000000000000000000)
(= |y#27| #b00000000000000000000000000000001)
(= |y$w_buff0_used#49| #b00000001)
(= |y$r_buff0_thd3#7| #b00000000)
(= |y$w_buff1_used#35| #b00000000)
(= |y$r_buff1_thd3#8| #b00000000)
(= |y$w_buff0#22| #b00000000000000000000000000000010)
(= |y$w_buff1#20| #b00000000000000000000000000000000)
(= |y$w_buff0_used#52| #b00000001)
(= |y$r_buff0_thd3#10| #b00000000)
(= |y$w_buff0#25| #b00000000000000000000000000000010)
(= |y$w_buff1_used#38| #b00000000)
(= |y$r_buff1_thd3#11| #b00000000)
(= |y$w_buff1#23| #b00000000000000000000000000000000)
(= |y#31| #b00000000000000000000000000000001)
(= |__unbuffered_cnt#11| #b00000000000000000000000000000010)
(= |__CPROVER_threads_exited#1$wclk$8| #b00001010)
(= |__CPROVER_threads_exited#2$rclk$8| #b11011110)
(= |__CPROVER_threads_exited#5$wclk$8| #b11011101)
(= |__CPROVER_threads_exited#7$wclk$8| #b11111011)
(= |__CPROVER_threads_exited#4$rclk$8| #b11011011)
(= |__CPROVER_threads_exited#3$wclk$8| #b11111000)
(= |__CPROVER_threads_exited#6$rclk$8| #b11101011)
(= |x#1$wclk$8| #b00101011)
(= |x#3$rclk$8| #b10100001)
(= |x#5$rclk$8| #b10100010)
(= |x#4$wclk$8| #b10100001)
(= |__unbuffered_cnt#7$wclk$8| #b11010011)
(= |__unbuffered_cnt#2$rclk$8| #b11011110)
(= |__unbuffered_cnt#10$wclk$8| #b11001110)
(= |__unbuffered_cnt#13$wclk$8| #b11010101)
(= |__unbuffered_cnt#1$wclk$8| #b00001011)
(= |__unbuffered_cnt#4$rclk$8| #b11010011)
(= |__unbuffered_cnt#8$rclk$8| #b11001110)
(= |__unbuffered_cnt#11$rclk$8| #b11010101)
(= |__unbuffered_p1_EAX#4$wclk$8| #b10100010)
(= |__unbuffered_p1_EAX#2$rclk$8| #b11111011)
(= |__unbuffered_p2_EAX#4$wclk$8| #b10101000)
(= |__unbuffered_p2_EAX#2$rclk$8| #b11111011)
(= |__unbuffered_p2_EBX#4$wclk$8| #b10110000)
(= |__unbuffered_p2_EBX#2$rclk$8| #b11111011)
(= |main$tmp_guard1#5| #b00000000)
(= |y#18$wclk$8| #b11000011)
(= |y#2$rclk$8| #b11111010)
(= |y#19$wclk$8| #b10100011)
(= |y#22$wclk$8| #b11000010)
(= |y#26$wclk$8| #b10101000)
(= |y#30$wclk$8| #b10110000)
(= |y#33$wclk$8| #b11000001)
(= |y#6$rclk$8| #b11111011)
(= |y#1$wclk$8| #b00111000)
(= |y#15$rclk$8| #b11000011)
(= |y#5$wclk$8| #b11111010)
(= |y#14$wclk$8| #b11111011)
(= |y#20$rclk$8| #b11000010)
(= |y#23$rclk$8| #b10101000)
(= |y#27$rclk$8| #b10110000)
(= |y#31$rclk$8| #b11000001)
(= |y$flush_delayed#9$wclk$8| #b10101000)
(= |y$flush_delayed#3$rclk$8| #b11111011)
(= |y$flush_delayed#11$wclk$8| #b10110000)
(= |y$mem_tmp#6$wclk$8| #b10101000)
(= |y$mem_tmp#3$rclk$8| #b11111011)
(= |y$mem_tmp#7$wclk$8| #b10110000)
(= |y$r_buff0_thd0#1$wclk$8| #b00111011)
(= |y$r_buff0_thd0#38$rclk$8| #b10000011)
(= |y$r_buff0_thd0#10$wclk$8| #b11111010)
(= |y$r_buff0_thd0#37$wclk$8| #b11111011)
(= |y$r_buff0_thd1#1$wclk$8| #b00111100)
(= |y$r_buff0_thd1#2$rclk$8| #b10000011)
(= |y$r_buff0_thd1#6$rclk$8| #b11000011)
(= |y$r_buff0_thd2#1$wclk$8| #b01000000)
(= |y$r_buff0_thd2#2$rclk$8| #b10000011)
(= |y$r_buff0_thd2#6$wclk$8| #b11000010)
(= |y$r_buff0_thd2#4$rclk$8| #b11000010)
(= |y$r_buff0_thd3#1$wclk$8| #b01000001)
(= |y$r_buff0_thd3#2$rclk$8| #b10000011)
(= |y$r_buff0_thd3#6$wclk$8| #b10101000)
(= |y$r_buff0_thd3#9$wclk$8| #b10110000)
(= |y$r_buff0_thd3#12$wclk$8| #b11000001)
(= |y$r_buff0_thd3#4$rclk$8| #b10101000)
(= |y$r_buff0_thd3#7$rclk$8| #b10110000)
(= |y$r_buff0_thd3#10$rclk$8| #b11000001)
(= |y$r_buff1_thd0#23$wclk$8| #b10000011)
(= |y$r_buff1_thd0#2$rclk$8| #b11111010)
(= |y$r_buff1_thd0#9$rclk$8| #b11111011)
(= |y$r_buff1_thd0#1$wclk$8| #b01000010)
(= |y$r_buff1_thd0#22$rclk$8| #b10000011)
(= |y$r_buff1_thd0#8$wclk$8| #b11111010)
(= |y$r_buff1_thd0#20$wclk$8| #b11111011)
(= |y$r_buff1_thd1#1$wclk$8| #b01000011)
(= |y$r_buff1_thd1#3$rclk$8| #b10000011)
(= |y$r_buff1_thd1#5$rclk$8| #b11000011)
(= |y$r_buff1_thd2#1$wclk$8| #b01000100)
(= |y$r_buff1_thd2#3$rclk$8| #b10000011)
(= |y$r_buff1_thd2#7$wclk$8| #b11000010)
(= |y$r_buff1_thd2#5$rclk$8| #b11000010)
(= |y$r_buff1_thd2#4$wclk$8| #b10000011)
(= |y$r_buff1_thd3#1$wclk$8| #b01000101)
(= |y$r_buff1_thd3#3$rclk$8| #b10000011)
(= |y$r_buff1_thd3#7$wclk$8| #b10101000)
(= |y$r_buff1_thd3#10$wclk$8| #b10110000)
(= |y$r_buff1_thd3#13$wclk$8| #b11000001)
(= |y$r_buff1_thd3#5$rclk$8| #b10101000)
(= |y$r_buff1_thd3#4$wclk$8| #b10000011)
(= |y$r_buff1_thd3#8$rclk$8| #b10110000)
(= |y$r_buff1_thd3#11$rclk$8| #b11000001)
(= |y$w_buff0#14$wclk$8| #b10000011)
(= |y$w_buff0#2$rclk$8| #b11111010)
(= |y$w_buff0#21$wclk$8| #b10101000)
(= |y$w_buff0#24$wclk$8| #b10110000)
(= |y$w_buff0#4$rclk$8| #b11111011)
(= |y$w_buff0#1$wclk$8| #b01001000)
(= |y$w_buff0#12$rclk$8| #b10000011)
(= |y$w_buff0#11$wclk$8| #b11111011)
(= |y$w_buff0#15$rclk$8| #b11000011)
(= |y$w_buff0#17$rclk$8| #b11000010)
(= |y$w_buff0#19$rclk$8| #b10101000)
(= |y$w_buff0#22$rclk$8| #b10110000)
(= |y$w_buff0#25$rclk$8| #b11000001)
(= |y$w_buff0_used#33$wclk$8| #b10000011)
(= |y$w_buff0_used#2$rclk$8| #b11111010)
(= |y$w_buff0_used#42$wclk$8| #b11000011)
(= |y$w_buff0_used#45$wclk$8| #b11000010)
(= |y$w_buff0_used#48$wclk$8| #b10101000)
(= |y$w_buff0_used#51$wclk$8| #b10110000)
(= |y$w_buff0_used#54$wclk$8| #b11000001)
(= |y$w_buff0_used#11$rclk$8| #b11111011)
(= |y$w_buff0_used#1$wclk$8| #b01001001)
(= |y$w_buff0_used#31$rclk$8| #b10000011)
(= |y$w_buff0_used#10$wclk$8| #b11111010)
(= |y$w_buff0_used#30$wclk$8| #b11111011)
(= |y$w_buff0_used#34$rclk$8| #b11000011)
(= |y$w_buff0_used#43$rclk$8| #b11000010)
(= |y$w_buff0_used#46$rclk$8| #b10101000)
(= |y$w_buff0_used#49$rclk$8| #b10110000)
(= |y$w_buff0_used#52$rclk$8| #b11000001)
(= |y$w_buff1#12$wclk$8| #b10000011)
(= |y$w_buff1#2$rclk$8| #b11111010)
(= |y$w_buff1#19$wclk$8| #b10101000)
(= |y$w_buff1#22$wclk$8| #b10110000)
(= |y$w_buff1#4$rclk$8| #b11111011)
(= |y$w_buff1#1$wclk$8| #b01001010)
(= |y$w_buff1#13$rclk$8| #b11000011)
(= |y$w_buff1#11$wclk$8| #b11111011)
(= |y$w_buff1#15$rclk$8| #b11000010)
(= |y$w_buff1#17$rclk$8| #b10101000)
(= |y$w_buff1#20$rclk$8| #b10110000)
(= |y$w_buff1#23$rclk$8| #b11000001)
(= |y$w_buff1_used#21$wclk$8| #b10000011)
(= |y$w_buff1_used#2$rclk$8| #b11111010)
(= |y$w_buff1_used#28$wclk$8| #b11000011)
(= |y$w_buff1_used#31$wclk$8| #b11000010)
(= |y$w_buff1_used#34$wclk$8| #b10101000)
(= |y$w_buff1_used#37$wclk$8| #b10110000)
(= |y$w_buff1_used#40$wclk$8| #b11000001)
(= |y$w_buff1_used#9$rclk$8| #b11111011)
(= |y$w_buff1_used#1$wclk$8| #b01001011)
(= |y$w_buff1_used#22$rclk$8| #b11000011)
(= |y$w_buff1_used#8$wclk$8| #b11111010)
(= |y$w_buff1_used#20$wclk$8| #b11111011)
(= |y$w_buff1_used#29$rclk$8| #b11000010)
(= |y$w_buff1_used#32$rclk$8| #b10101000)
(= |y$w_buff1_used#35$rclk$8| #b10110000)
(= |y$w_buff1_used#38$rclk$8| #b11000001)
(= |weak$$choice0#5$wclk$8| #b10101000)
(= |weak$$choice0#3$rclk$8| #b11111011)
(= |weak$$choice0#6$wclk$8| #b10110000)
(= |weak$$choice2#12$wclk$8| #b10101000)
(= |weak$$choice2#3$rclk$8| #b11111011)
(= |weak$$choice2#13$wclk$8| #b10110000)
(= |__unbuffered_p1_EAX#1$wclk$8| #b00011000)
(= |__unbuffered_p2_EAX#1$wclk$8| #b00011001)
(= |__unbuffered_p2_EBX#1$wclk$8| #b00011010)
(= |y$flush_delayed#1$wclk$8| #b00111001)
(= |y$flush_delayed#7$wclk$8| #b11111011)
(= |y$mem_tmp#1$wclk$8| #b00111010)
(= |y$mem_tmp#5$wclk$8| #b11111011)
(= |y$r_buff0_thd1#5$wclk$8| #b10000011)
(= |y$r_buff0_thd1#14$wclk$8| #b11000011)
(= |y$r_buff1_thd1#4$wclk$8| #b10000011)
(= |y$r_buff1_thd1#11$wclk$8| #b11000011)
(= |weak$$choice0#1$wclk$8| #b00101001)
(= |weak$$choice0#4$wclk$8| #b11111011)
(= |weak$$choice2#1$wclk$8| #b00101010)
(= |weak$$choice2#11$wclk$8| #b11111011)
(= t1$40$spwnclk$8 #b10000010)
(= t1$45$spwnclk$8 #b10100001)
(= t1$50$spwnclk$8 #b10100110)
(= |main::1::t1867!0@1$wclk$8| #b00000000)
(= |main::1::t1868!0@1$wclk$8| #b00000001)
(= |__CPROVER_dead_object#1$wclk$8| #b00000010)
(= |__CPROVER_deallocated#1$wclk$8| #b00000011)
(= |__CPROVER_malloc_is_new_array#1$wclk$8| #b00000100)
(= |__CPROVER_malloc_object#1$wclk$8| #b00000101)
(= |__CPROVER_malloc_size#1$wclk$8| #b00000110)
(= |__CPROVER_memory_leak#1$wclk$8| #b00000111)
(= |__CPROVER_next_thread_id#1$wclk$8| #b00001000)
(= |__CPROVER_pipe_count#1$wclk$8| #b00001001)
(= |main$tmp_guard0#1$wclk$8| #b00011011)
(= |main$tmp_guard1#1$wclk$8| #b00101000)
(= |y$read_delayed#1$wclk$8| #b01000110)
(= |y$read_delayed_var#1$wclk$8| #b01000111)
(= |main::1::t1866!0@1#1$wclk$8| #b01100110)
(= |__CPROVER_next_thread_id#2$wclk$8| #b10000000)
(= |main::1::t1866!0@1#2$wclk$8| #b10000001)
(= |main::1::t1867!0@1#1$wclk$8| #b10000011)
(= |__CPROVER_next_thread_id#3$rclk$8| #b10000100)
(= |__CPROVER_next_thread_id#5$wclk$8| #b10000100)
(= |main::1::t1867!0@1#2$wclk$8| #b10001000)
(= |main::1::t1868!0@1#1$wclk$8| #b10100010)
(= |__CPROVER_next_thread_id#6$rclk$8| #b10100011)
(= |__CPROVER_next_thread_id#8$wclk$8| #b10100011)
(= |main::1::t1868!0@1#2$wclk$8| #b10100100)
(= |main$tmp_guard0#2$wclk$8| #b11011110)
(= |main$tmp_guard0#3$rclk$8| #b11101101)
(= |y$r_buff0_thd0#2$rclk$8| #b11111010)
(= |main$tmp_guard1#3$rclk$8| #b11111011)
(= |y$r_buff0_thd0#11$rclk$8| #b11111011)
(= |main$tmp_guard1#4$wclk$8| #b11111011)
(= |main$tmp_guard1#5$rclk$8| #b11111100)
(= |main$tmp_guard1#6$rclk$8| #b11111110)
(= array_of.0 @fun_9)
(= |__CPROVER_threads_exited#2| @fun_7)
(= |__CPROVER_threads_exited#4| @fun_9)
(= |__CPROVER_threads_exited#6| @fun_7)
(function @fun_9
 (type (Array (_ BitVec 32) (_ BitVec 1)))
 (= (@fun_9 #b10000000000000000000000000000000) #b0)
 (= (@fun_9 #b00000000000000000000000000000000) #b0)
 (default #b1))
(function @fun_7
 (type (Array (_ BitVec 32) (_ BitVec 1)))
 (= (@fun_7 #b10000000000000000000000000000000) #b0)
 (default #b1))

real	0m0.030s
user	0m0.026s
sys	0m0.003s
State: AC Run_time: 0.031500816345214844